1635749880
1635784200
1635784200
1635785100
1635835500
1635867000
1635922800
1635953820
1636008660
1636039920
1636095540
1636127640
1636354080
1636385400
1636440180
1636450860
1636959600
1636990200
1636990200
1636992000
1637045940
1637076720
1637131740
1637163000
1637218320
1637249520
1637305080
1637336100
1637564400
1637595180
1637650620
1637681520
1637737200
1637768040
1637823600
1637853000
1637910000
1637940840
1638169200
1638199800
1638199800
1638203400
1638255420
1638286200
1638286200
1638291600
